
Gurobi 9.5.2 (win64) logging started Wed Apr 12 17:11:17 2023

Set parameter LogFile to value "./ccga_results/2023-04-12 17-11-15-694/MSP_TimeStampConvert_gurobi_log.txt"

Gurobi 9.5.2 (win64) logging started Wed Apr 12 17:11:17 2023

Set parameter LogFile to value "./ccga_results/2023-04-12 17-11-15-694/MSP_TimeStampConvert_gurobi_log.txt"
Set parameter TimeLimit to value 180
Gurobi Optimizer version 9.5.2 build v9.5.2rc0 (win64)
Thread count: 10 physical cores, 20 logical processors, using up to 20 threads
Optimize a model with 600 rows, 457 columns and 1482 nonzeros
Model fingerprint: 0xe7727400
Variable types: 25 continuous, 432 integer (432 binary)
Coefficient statistics:
  Matrix range     [1e+00, 1e+00]
  Objective range  [1e+00, 1e+00]
  Bounds range     [8e+02, 8e+02]
  RHS range        [1e+00, 1e+00]
Found heuristic solution: objective 19200.000000

Explored 0 nodes (0 simplex iterations) in 0.00 seconds (0.00 work units)
Thread count was 1 (of 20 available processors)

Solution count 1: 19200 

Optimal solution found (tolerance 5.00e-02)
Best objective 1.920000000000e+04, best bound 1.920000000000e+04, gap 0.0000%

User-callback calls 21, time in user-callback 0.00 sec
Gurobi Optimizer version 9.5.2 build v9.5.2rc0 (win64)
Thread count: 10 physical cores, 20 logical processors, using up to 20 threads
Optimize a model with 2173 rows, 961 columns and 6491 nonzeros
Model fingerprint: 0x5c8f96ee
Variable types: 481 continuous, 480 integer (480 binary)
Coefficient statistics:
  Matrix range     [2e-01, 8e+02]
  Objective range  [1e+00, 1e+00]
  Bounds range     [8e+02, 8e+02]
  RHS range        [1e+00, 1e+08]

MIP start from previous solve did not produce a new incumbent solution

Presolve removed 513 rows and 166 columns
Presolve time: 0.02s
Presolved: 1660 rows, 795 columns, 5490 nonzeros
Variable types: 404 continuous, 391 integer (391 binary)
Found heuristic solution: objective 12618.151688
Found heuristic solution: objective 12679.135780

Root relaxation: objective 1.814733e+04, 1035 iterations, 0.01 seconds (0.01 work units)

    Nodes    |    Current Node    |     Objective Bounds      |     Work
 Expl Unexpl |  Obj  Depth IntInf | Incumbent    BestBd   Gap | It/Node Time

*    0     0               0    18147.327470 18147.3275  0.00%     -    0s

Explored 1 nodes (1440 simplex iterations) in 0.06 seconds (0.06 work units)
Thread count was 20 (of 20 available processors)

Solution count 3: 18147.3 12679.1 12618.2 

Optimal solution found (tolerance 5.00e-02)
Best objective 1.814732747000e+04, best bound 1.814732747000e+04, gap 0.0000%

User-callback calls 702, time in user-callback 0.00 sec
Gurobi Optimizer version 9.5.2 build v9.5.2rc0 (win64)
Thread count: 10 physical cores, 20 logical processors, using up to 20 threads
Optimize a model with 3746 rows, 1465 columns and 11500 nonzeros
Model fingerprint: 0xcd1509fd
Variable types: 937 continuous, 528 integer (528 binary)
Coefficient statistics:
  Matrix range     [2e-01, 8e+02]
  Objective range  [1e+00, 1e+00]
  Bounds range     [8e+02, 8e+02]
  RHS range        [1e+00, 1e+08]

MIP start from previous solve did not produce a new incumbent solution

Presolve removed 934 rows and 282 columns
Presolve time: 0.03s
Presolved: 2812 rows, 1183 columns, 9719 nonzeros
Variable types: 792 continuous, 391 integer (391 binary)
Found heuristic solution: objective 9118.2984204

Root relaxation: objective 1.719020e+04, 795 iterations, 0.01 seconds (0.01 work units)

    Nodes    |    Current Node    |     Objective Bounds      |     Work
 Expl Unexpl |  Obj  Depth IntInf | Incumbent    BestBd   Gap | It/Node Time

     0     0 17190.2004    0   16 9118.29842 17190.2004  88.5%     -    0s
H    0     0                    16935.688554 17190.2004  1.50%     -    0s

Explored 1 nodes (1122 simplex iterations) in 0.08 seconds (0.09 work units)
Thread count was 20 (of 20 available processors)

Solution count 2: 16935.7 9118.3 

Optimal solution found (tolerance 5.00e-02)
Best objective 1.693568855400e+04, best bound 1.719020040033e+04, gap 1.5028%

User-callback calls 636, time in user-callback 0.00 sec
Gurobi Optimizer version 9.5.2 build v9.5.2rc0 (win64)
Thread count: 10 physical cores, 20 logical processors, using up to 20 threads
Optimize a model with 5319 rows, 1969 columns and 16509 nonzeros
Model fingerprint: 0xbe8d892d
Variable types: 1393 continuous, 576 integer (576 binary)
Coefficient statistics:
  Matrix range     [2e-01, 8e+02]
  Objective range  [1e+00, 1e+00]
  Bounds range     [8e+02, 8e+02]
  RHS range        [1e+00, 1e+08]

MIP start from previous solve did not produce a new incumbent solution

Presolve removed 1354 rows and 401 columns
Presolve time: 0.04s
Presolved: 3965 rows, 1568 columns, 13941 nonzeros
Variable types: 1177 continuous, 391 integer (391 binary)
Found heuristic solution: objective 7759.1459176

Root relaxation: objective 1.506909e+04, 1578 iterations, 0.02 seconds (0.03 work units)

    Nodes    |    Current Node    |     Objective Bounds      |     Work
 Expl Unexpl |  Obj  Depth IntInf | Incumbent    BestBd   Gap | It/Node Time

     0     0 15069.0880    0   43 7759.14592 15069.0880  94.2%     -    0s
H    0     0                    14505.419385 15069.0880  3.89%     -    0s

Cutting planes:
  Gomory: 12
  MIR: 34
  Flow cover: 41
  Relax-and-lift: 3

Explored 1 nodes (2446 simplex iterations) in 0.16 seconds (0.21 work units)
Thread count was 20 (of 20 available processors)

Solution count 2: 14505.4 7759.15 

Optimal solution found (tolerance 5.00e-02)
Best objective 1.450541938500e+04, best bound 1.506908801774e+04, gap 3.8859%

User-callback calls 654, time in user-callback 0.00 sec
Gurobi Optimizer version 9.5.2 build v9.5.2rc0 (win64)
Thread count: 10 physical cores, 20 logical processors, using up to 20 threads
Optimize a model with 6892 rows, 2473 columns and 21518 nonzeros
Model fingerprint: 0xaebb8aff
Variable types: 1849 continuous, 624 integer (624 binary)
Coefficient statistics:
  Matrix range     [2e-01, 8e+02]
  Objective range  [1e+00, 1e+00]
  Bounds range     [8e+02, 8e+02]
  RHS range        [1e+00, 1e+08]

MIP start from previous solve did not produce a new incumbent solution

Presolve removed 1773 rows and 519 columns
Presolve time: 0.06s
Presolved: 5119 rows, 1954 columns, 17787 nonzeros
Variable types: 1560 continuous, 394 integer (391 binary)
Found heuristic solution: objective 6679.1027853

Root relaxation: objective 1.241066e+04, 2632 iterations, 0.04 seconds (0.04 work units)

    Nodes    |    Current Node    |     Objective Bounds      |     Work
 Expl Unexpl |  Obj  Depth IntInf | Incumbent    BestBd   Gap | It/Node Time

     0     0 12410.6570    0   58 6679.10279 12410.6570  85.8%     -    0s
H    0     0                    11925.586515 12410.6570  4.07%     -    0s

Cutting planes:
  Gomory: 17
  Cover: 2
  Implied bound: 1
  MIR: 66
  Flow cover: 64
  Relax-and-lift: 1

Explored 1 nodes (3429 simplex iterations) in 0.23 seconds (0.29 work units)
Thread count was 20 (of 20 available processors)

Solution count 2: 11925.6 6679.1 

Optimal solution found (tolerance 5.00e-02)
Best objective 1.192558651511e+04, best bound 1.241065704753e+04, gap 4.0675%

User-callback calls 707, time in user-callback 0.00 sec
Gurobi Optimizer version 9.5.2 build v9.5.2rc0 (win64)
Thread count: 10 physical cores, 20 logical processors, using up to 20 threads
Optimize a model with 8465 rows, 2977 columns and 26527 nonzeros
Model fingerprint: 0x10e59da4
Variable types: 2305 continuous, 672 integer (672 binary)
Coefficient statistics:
  Matrix range     [2e-01, 8e+02]
  Objective range  [1e+00, 1e+00]
  Bounds range     [8e+02, 8e+02]
  RHS range        [1e+00, 1e+08]

MIP start from previous solve did not produce a new incumbent solution

Presolve removed 2194 rows and 639 columns
Presolve time: 0.08s
Presolved: 6271 rows, 2338 columns, 21882 nonzeros
Variable types: 1944 continuous, 394 integer (391 binary)
Found heuristic solution: objective 6202.7525742

Root relaxation: objective 9.837390e+03, 4873 iterations, 0.15 seconds (0.17 work units)

    Nodes    |    Current Node    |     Objective Bounds      |     Work
 Expl Unexpl |  Obj  Depth IntInf | Incumbent    BestBd   Gap | It/Node Time

     0     0 9837.38961    0   96 6202.75257 9837.38961  58.6%     -    0s
H    0     0                    8523.6984486 9837.38961  15.4%     -    0s
     0     0 9813.72510    0  154 8523.69845 9813.72510  15.1%     -    0s
H    0     0                    8636.5073031 9813.72510  13.6%     -    0s
     0     0 9813.72510    0  157 8636.50730 9813.72510  13.6%     -    0s
H    0     0                    9213.8503782 9813.72510  6.51%     -    0s
     0     0 9809.32269    0  191 9213.85038 9809.32269  6.46%     -    0s
     0     0 9809.05822    0  184 9213.85038 9809.05822  6.46%     -    0s
     0     0 9809.05822    0  184 9213.85038 9809.05822  6.46%     -    0s
     0     0 9808.96205    0  190 9213.85038 9808.96205  6.46%     -    0s
     0     0 9808.66442    0  210 9213.85038 9808.66442  6.46%     -    0s
     0     0 9807.29232    0  196 9213.85038 9807.29232  6.44%     -    0s
     0     0 9807.13253    0  193 9213.85038 9807.13253  6.44%     -    0s
     0     0 9807.13253    0  193 9213.85038 9807.13253  6.44%     -    0s
     0     0 9806.28711    0  191 9213.85038 9806.28711  6.43%     -    0s
     0     0 9800.36639    0  189 9213.85038 9800.36639  6.37%     -    0s
     0     0 9800.36464    0  195 9213.85038 9800.36464  6.37%     -    0s
     0     0 9800.33317    0  191 9213.85038 9800.33317  6.37%     -    1s
     0     0 9800.20150    0  198 9213.85038 9800.20150  6.36%     -    1s
     0     0 9800.14532    0  189 9213.85038 9800.14532  6.36%     -    1s
     0     0 9800.08635    0  184 9213.85038 9800.08635  6.36%     -    1s
     0     0 9800.08635    0  193 9213.85038 9800.08635  6.36%     -    1s
     0     0 9800.05974    0  215 9213.85038 9800.05974  6.36%     -    1s
     0     0 9800.05974    0  218 9213.85038 9800.05974  6.36%     -    1s
     0     0 9799.70640    0  206 9213.85038 9799.70640  6.36%     -    1s
     0     0 9799.70640    0  215 9213.85038 9799.70640  6.36%     -    1s
H    0     0                    9308.9359999 9799.70640  5.27%     -    1s
     0     0 9799.70640    0  209 9308.93600 9799.70640  5.27%     -    1s
     0     0 9799.70640    0  211 9308.93600 9799.70640  5.27%     -    1s
     0     0 9799.70640    0  125 9308.93600 9799.70640  5.27%     -    1s
     0     0 9799.70640    0  193 9308.93600 9799.70640  5.27%     -    1s
     0     0 9799.50921    0  150 9308.93600 9799.50921  5.27%     -    1s
     0     0 9799.49584    0  152 9308.93600 9799.49584  5.27%     -    1s
     0     0 9799.49584    0  161 9308.93600 9799.49584  5.27%     -    1s
     0     0 9799.42114    0  179 9308.93600 9799.42114  5.27%     -    1s
     0     0 9799.42114    0  179 9308.93600 9799.42114  5.27%     -    1s
     0     0 9799.21650    0  158 9308.93600 9799.21650  5.27%     -    1s
     0     0 9799.20568    0  170 9308.93600 9799.20568  5.27%     -    1s
     0     0 9799.20568    0  174 9308.93600 9799.20568  5.27%     -    1s
     0     0 9799.18007    0  177 9308.93600 9799.18007  5.27%     -    1s
     0     0 9799.18007    0  174 9308.93600 9799.18007  5.27%     -    1s
     0     0 9799.18007    0  177 9308.93600 9799.18007  5.27%     -    1s
     0     0 9799.18007    0  129 9308.93600 9799.18007  5.27%     -    2s
     0     2 9799.18007    0  118 9308.93600 9799.18007  5.27%     -    2s
H  130   133                    9317.8328198 9794.72838  5.12%   167    2s
H  158   169                    9348.7073494 9794.72838  4.77%   155    2s
H  159   169                    9364.3014947 9794.72838  4.60%   154    2s
H  165   169                    9400.0742451 9794.72838  4.20%   153    2s

Cutting planes:
  Gomory: 7
  MIR: 298
  Flow cover: 241
  Relax-and-lift: 2

Explored 168 nodes (38950 simplex iterations) in 2.44 seconds (2.88 work units)
Thread count was 20 (of 20 available processors)

Solution count 9: 9400.07 9364.3 9348.71 ... 6202.75

Optimal solution found (tolerance 5.00e-02)
Best objective 9.400074245111e+03, best bound 9.794728376015e+03, gap 4.1984%

User-callback calls 1747, time in user-callback 0.00 sec
Gurobi Optimizer version 9.5.2 build v9.5.2rc0 (win64)
Thread count: 10 physical cores, 20 logical processors, using up to 20 threads
Optimize a model with 10038 rows, 3481 columns and 31536 nonzeros
Model fingerprint: 0x63d674f6
Variable types: 2761 continuous, 720 integer (720 binary)
Coefficient statistics:
  Matrix range     [2e-01, 8e+02]
  Objective range  [1e+00, 1e+00]
  Bounds range     [8e+02, 8e+02]
  RHS range        [1e+00, 1e+08]

MIP start from previous solve did not produce a new incumbent solution

Presolve removed 2615 rows and 759 columns
Presolve time: 0.09s
Presolved: 7423 rows, 2722 columns, 25971 nonzeros
Variable types: 2328 continuous, 394 integer (391 binary)
Found heuristic solution: objective 6200.4046171

Root relaxation: objective 9.467896e+03, 5378 iterations, 0.16 seconds (0.17 work units)

    Nodes    |    Current Node    |     Objective Bounds      |     Work
 Expl Unexpl |  Obj  Depth IntInf | Incumbent    BestBd   Gap | It/Node Time

     0     0 9467.89630    0  115 6200.40462 9467.89630  52.7%     -    0s
H    0     0                    7905.9261057 9467.89630  19.8%     -    0s
     0     0 9452.16517    0  166 7905.92611 9452.16517  19.6%     -    0s
H    0     0                    8462.0204549 9452.16517  11.7%     -    0s
     0     0 9452.16517    0  190 8462.02045 9452.16517  11.7%     -    0s
H    0     0                    8817.3658068 9452.16517  7.20%     -    0s
H    0     0                    8945.7747742 9452.16517  5.66%     -    0s
     0     0 9445.06324    0  186 8945.77477 9445.06324  5.58%     -    0s
     0     0 9442.84223    0  189 8945.77477 9442.84223  5.56%     -    0s
     0     0 9442.84223    0  192 8945.77477 9442.84223  5.56%     -    0s
     0     0 9441.60266    0  211 8945.77477 9441.60266  5.54%     -    0s
     0     0 9440.41463    0  208 8945.77477 9440.41463  5.53%     -    0s
     0     0 9440.37165    0  209 8945.77477 9440.37165  5.53%     -    0s
     0     0 9440.37165    0  209 8945.77477 9440.37165  5.53%     -    0s
     0     0 9438.63233    0  196 8945.77477 9438.63233  5.51%     -    1s
     0     0 9438.21889    0  184 8945.77477 9438.21889  5.50%     -    1s
     0     0 9438.04057    0  186 8945.77477 9438.04057  5.50%     -    1s
     0     0 9437.94906    0  187 8945.77477 9437.94906  5.50%     -    1s
     0     0 9437.94906    0  187 8945.77477 9437.94906  5.50%     -    1s
     0     0 9437.90924    0  199 8945.77477 9437.90924  5.50%     -    1s
     0     0 9437.69906    0  190 8945.77477 9437.69906  5.50%     -    1s
     0     0 9437.50340    0  188 8945.77477 9437.50340  5.50%     -    1s
     0     0 9437.50340    0  191 8945.77477 9437.50340  5.50%     -    1s
     0     0 9431.05107    0  180 8945.77477 9431.05107  5.42%     -    1s
     0     0 9431.01252    0  185 8945.77477 9431.01252  5.42%     -    1s
     0     0 9430.98616    0  185 8945.77477 9430.98616  5.42%     -    1s
     0     0 9430.98616    0  185 8945.77477 9430.98616  5.42%     -    1s
     0     0 9430.96242    0  194 8945.77477 9430.96242  5.42%     -    1s
     0     0 9430.96242    0  190 8945.77477 9430.96242  5.42%     -    1s
     0     0 9430.76215    0  187 8945.77477 9430.76215  5.42%     -    1s
     0     0 9430.76215    0  187 8945.77477 9430.76215  5.42%     -    1s
     0     0 9430.76215    0  181 8945.77477 9430.76215  5.42%     -    1s
     0     0 9430.76215    0  187 8945.77477 9430.76215  5.42%     -    1s
H    0     0                    8958.4200948 9430.51960  5.27%     -    1s
     0     0 9430.51960    0  110 8958.42009 9430.51960  5.27%     -    1s
     0     0 9430.51960    0  181 8958.42009 9430.51960  5.27%     -    1s
     0     0 9430.46955    0  187 8958.42009 9430.46955  5.27%     -    1s
     0     0 9430.46955    0  181 8958.42009 9430.46955  5.27%     -    1s
     0     0 9430.41620    0  187 8958.42009 9430.41620  5.27%     -    1s
     0     0 9430.41620    0  119 8958.42009 9430.41620  5.27%     -    2s
     0     2 9430.41620    0  113 8958.42009 9430.41620  5.27%     -    2s
H  290   281                    8979.8384290 9427.04537  4.98%   165    2s
H  293   281                    9036.3315418 9427.04537  4.32%   165    2s

Cutting planes:
  Gomory: 8
  MIR: 278
  Flow cover: 235
  Relax-and-lift: 2

Explored 297 nodes (62168 simplex iterations) in 2.92 seconds (3.59 work units)
Thread count was 20 (of 20 available processors)

Solution count 8: 9036.33 8979.84 8958.42 ... 6200.4

Optimal solution found (tolerance 5.00e-02)
Best objective 9.036331541778e+03, best bound 9.427045372435e+03, gap 4.3238%

User-callback calls 2012, time in user-callback 0.00 sec
Gurobi Optimizer version 9.5.2 build v9.5.2rc0 (win64)
Thread count: 10 physical cores, 20 logical processors, using up to 20 threads
Optimize a model with 11611 rows, 3985 columns and 36545 nonzeros
Model fingerprint: 0x0ece3866
Variable types: 3217 continuous, 768 integer (768 binary)
Coefficient statistics:
  Matrix range     [2e-01, 8e+02]
  Objective range  [1e+00, 1e+00]
  Bounds range     [8e+02, 8e+02]
  RHS range        [1e+00, 1e+08]

MIP start from previous solve did not produce a new incumbent solution

Presolve removed 3036 rows and 879 columns
Presolve time: 0.11s
Presolved: 8575 rows, 3106 columns, 29895 nonzeros
Variable types: 2712 continuous, 394 integer (391 binary)
Found heuristic solution: objective 5960.7472018

Root relaxation: objective 9.181106e+03, 7111 iterations, 0.24 seconds (0.27 work units)

    Nodes    |    Current Node    |     Objective Bounds      |     Work
 Expl Unexpl |  Obj  Depth IntInf | Incumbent    BestBd   Gap | It/Node Time

     0     0 9181.10628    0  108 5960.74720 9181.10628  54.0%     -    0s
H    0     0                    7854.2303362 9181.10628  16.9%     -    0s
     0     0 9111.50397    0  208 7854.23034 9111.50397  16.0%     -    0s
     0     0 9075.24624    0  180 7854.23034 9075.24624  15.5%     -    0s
     0     0 9072.04384    0  187 7854.23034 9072.04384  15.5%     -    0s
     0     0 9072.04384    0  184 7854.23034 9072.04384  15.5%     -    0s
H    0     0                    7976.4395832 9072.04384  13.7%     -    1s
     0     0 9028.27879    0  191 7976.43958 9028.27879  13.2%     -    1s
     0     0 9024.78506    0  190 7976.43958 9024.78506  13.1%     -    1s
     0     0 9022.05159    0  184 7976.43958 9022.05159  13.1%     -    1s
     0     0 9021.90348    0  190 7976.43958 9021.90348  13.1%     -    1s
     0     0 9021.90348    0  190 7976.43958 9021.90348  13.1%     -    1s
H    0     0                    8260.5635223 9021.90348  9.22%     -    1s
     0     0 9021.67111    0  184 8260.56352 9021.67111  9.21%     -    1s
     0     0 9021.67111    0  193 8260.56352 9021.67111  9.21%     -    1s
H    0     0                    8433.8793780 9021.67111  6.97%     -    1s
     0     0 9021.17429    0  200 8433.87938 9021.17429  6.96%     -    1s
     0     0 9021.17429    0  194 8433.87938 9021.17429  6.96%     -    1s
H    0     0                    8495.7235235 9021.17429  6.18%     -    1s
     0     0 9021.17429    0  191 8495.72352 9021.17429  6.18%     -    1s
     0     0 9021.17429    0  194 8495.72352 9021.17429  6.18%     -    1s
H    0     0                    8495.7235280 9021.17429  6.18%     -    1s
     0     0 9021.17429    0  170 8495.72353 9021.17429  6.18%     -    1s
     0     0 9021.17429    0  185 8495.72353 9021.17429  6.18%     -    1s
     0     0 9019.58416    0  129 8495.72353 9019.58416  6.17%     -    2s
     0     0 9019.57257    0  159 8495.72353 9019.57257  6.17%     -    2s
     0     0 9019.50560    0  191 8495.72353 9019.50560  6.17%     -    2s
     0     0 9019.49800    0  188 8495.72353 9019.49800  6.17%     -    2s
     0     0 9018.99609    0  185 8495.72353 9018.99609  6.16%     -    2s
     0     0 9018.91469    0  171 8495.72353 9018.91469  6.16%     -    2s
     0     0 9018.90956    0  187 8495.72353 9018.90956  6.16%     -    2s
     0     0 9018.70350    0  184 8495.72353 9018.70350  6.16%     -    2s
     0     0 9018.70334    0  190 8495.72353 9018.70334  6.16%     -    2s
     0     0 9018.49721    0  187 8495.72353 9018.49721  6.15%     -    2s
